n = 24;
lu = [|-161, -156
      |309, 538
      |-460, -315
      |-491, 401
      |-225, 453
      |-80, 303
      |-163, 261
      |-518, -121
      |-311, -281
      |-133, 413
      |170, 220
      |-513, -78
      |-514, 25
      |523, 537
      |-322, 467
      |-561, -487
      |374, 573
      |66, 77
      |291, 308
      |-461, -165
      |-172, -63
      |211, 300
      |-257, 485
      |-456, -373|];
